100 8
751 935
318 455
420 521
300 494
643 165
857 459
238 777
690 439
492 21
161 782
376 593
700 526
320 630
274 312
515 226
316 567
802 293
577 627
850 523
539 616
200 367
290 594
699 383
855 337
957 290
625 17
658 221
913 438
709 614
682 754
840 618
641 653
269 309
709 531
212 684
317 460
783 302
809 479
768 280
822 297
816 666
514 553
326 608
337 590
917 903
728 370
928 409
257 582
351 731
685 466
919 286
777 628
255 561
513 306
939 281
521 473
896 768
225 686
645 359
642 198
248 863
640 45
771 898
839 293
946 735
171 692
330 505
338 801
948 812
548 718
770 528
680 368
341 659
752 134
470 81
861 570
609 244
193 399
696 816
826 766
429 286
824 751
251 874
430 490
850 103
203 636
443 305
611 125
946 105
819 541
539 365
645 788
252 412
896 351
641 317
808 531
852 906
776 871
650 725
797 380
